ampl_outputs/A-n9-k3-m1-b3ampl_.txt.out
Gurobi 12.0.1:   lim:time = 14400
  mip:bestbound = 1
Set parameter LogToConsole to value 1
  tech:outlev = 1
Set parameter Cuts to value 3
  cut:cuts = 3
Set parameter Presolve to value 2
  pre:solve = 2
Set parameter MIPFocus to value 2
  mip:focus = 2
Set parameter Symmetry to value 2
  mip:symmetry = 2
Set parameter InfUnbdInfo to value 1
Gurobi Optimizer version 12.0.1 build v12.0.1rc0 (win64 - Windows 11.0 (26100.2))

CPU model: Intel(R) Core(TM) i7-10700 CPU @ 2.90GHz, instruction set [SSE2|AVX|AVX2]
Thread count: 8 physical cores, 16 logical processors, using up to 16 threads

Non-default parameters:
TimeLimit  14400
MIPFocus  2
Symmetry  2
Cuts  3
InfUnbdInfo  1
Presolve  2

Optimize a model with 351 rows, 373 columns and 2229 nonzeros
Model fingerprint: 0xda28c8df
Model has 1 quadratic objective term
Model has 5 quadratic constraints
Variable types: 28 continuous, 345 integer (0 binary)
Coefficient statistics:
  Matrix range     [1e+00, 1e+05]
  QMatrix range    [1e+00, 1e+00]
  QLMatrix range   [1e+00, 2e+01]
  Objective range  [7e+00, 9e+01]
  QObjective range [3e+00, 3e+00]
  Bounds range     [1e+00, 1e+02]
  RHS range        [1e+00, 1e+05]
  QRHS range       [1e+02, 1e+02]
Presolve removed 27 rows and 50 columns
Presolve time: 0.03s
Presolved: 483 rows, 479 columns, 3005 nonzeros
Variable types: 15 continuous, 464 integer (357 binary)
Root relaxation presolve removed 73 rows and 0 columns
Root relaxation presolved: 355 rows, 485 columns, 3129 nonzeros


Root relaxation: objective 1.721548e+02, 67 iterations, 0.01 seconds (0.00 work units)

    Nodes    |    Current Node    |     Objective Bounds      |     Work
 Expl Unexpl |  Obj  Depth IntInf | Incumbent    BestBd   Gap | It/Node Time

     0     0  172.15478    0   38          -  172.15478      -     -    0s
H    0     0                     460.3200000  172.15478  62.6%     -    0s
H    0     0                     434.1400000  172.15478  60.3%     -    0s
     0     0  217.34667    0   34  434.14000  217.34667  49.9%     -    0s
H    0     0                     284.2400000  217.34667  23.5%     -    0s
     0     0  217.71000    0   20  284.24000  217.71000  23.4%     -    0s
     0     0  217.71000    0   31  284.24000  217.71000  23.4%     -    0s
     0     0  220.53000    0   28  284.24000  220.53000  22.4%     -    0s
     0     0  220.53000    0   27  284.24000  220.53000  22.4%     -    0s
H    0     0                     274.5000000  220.53000  19.7%     -    0s
     0     0  222.02148    0   20  274.50000  222.02148  19.1%     -    0s
     0     0  223.00800    0   42  274.50000  223.00800  18.8%     -    0s
     0     0  227.48081    0   74  274.50000  227.48081  17.1%     -    0s
     0     0  227.53111    0   73  274.50000  227.53111  17.1%     -    0s
     0     0  227.53111    0   47  274.50000  227.53111  17.1%     -    0s
     0     0  227.53111    0   16  274.50000  227.53111  17.1%     -    0s
H    0     0                     263.6500000  227.53111  13.7%     -    0s
     0     0  227.53111    0   45  263.65000  227.53111  13.7%     -    0s
     0     0  227.53111    0   68  263.65000  227.53111  13.7%     -    0s
     0     0  227.53111    0   68  263.65000  227.53111  13.7%     -    0s
     0     0  227.53111    0   32  263.65000  227.53111  13.7%     -    0s
     0     0  227.53111    0   16  263.65000  227.53111  13.7%     -    0s
     0     0  227.53111    0   53  263.65000  227.53111  13.7%     -    0s
     0     0  227.53111    0   72  263.65000  227.53111  13.7%     -    0s
     0     0  227.53111    0   63  263.65000  227.53111  13.7%     -    0s
     0     0  227.53111    0   57  263.65000  227.53111  13.7%     -    1s
     0     0  227.53111    0   57  263.65000  227.53111  13.7%     -    1s
     0     2  227.53111    0   57  263.65000  227.53111  13.7%     -    1s

Cutting planes:
  Learned: 10
  Gomory: 18
  Lift-and-project: 4
  Cover: 8
  Implied bound: 25
  Projected implied bound: 4
  MIR: 17
  StrongCG: 15
  Flow cover: 69
  GUB cover: 4
  Inf proof: 4
  Zero half: 111
  RLT: 53
  Relax-and-lift: 45

Explored 1177 nodes (15614 simplex iterations) in 1.32 seconds (1.02 work units)
Thread count was 16 (of 16 available processors)

Solution count 5: 263.65 274.5 284.24 ... 460.32

Optimal solution found (tolerance 1.00e-04)
Best objective 2.636500000000e+02, best bound 2.636500000000e+02, gap 0.0000%

AMPL MP initial flat model has 373 variables (0 integer, 345 binary);
Objectives: 1 quadratic; 
Constraints:  351 linear; 5 quadratic;

AMPL MP final model has 373 variables (0 integer, 345 binary);
Objectives: 1 quadratic; 
Constraints:  351 linear; 5 quadratic;


-----RESULTS INFO-----
running_time:  1.406
TC.best_bound:  263.65
TC:  263.65
MIP Gap (%):  0
=== Vehicle Routes ===
Vehicle 1: 0 → 2
Vehicle 1: 1 → 18
Vehicle 1: 2 → 14
Vehicle 1: 3 → 10
Vehicle 1: 10 → 1
Vehicle 1: 14 → 3
Vehicle 2: 0 → 4
Vehicle 2: 4 → 18
Vehicle 3: 0 → 18

=== Full Vehicle Routes ===
Vehicle 1: 0 → 2 → 14 → 3 → 10 → 1 → 0 (87<100)
Vehicle 2: 0 → 4 → 0 (14<100)
Vehicle 3: 0 → 0 (0<100)
Arc used by MRT line: y variables:
Customer assigment to PL: u variables:
5 10
6 14
7 14
8 10
Node is served by regular vehicle: g variables:
1
2
3
4
10
14
Customer assigment to Home delivery: gm variables:
1
2
3
4
Node total demands: ntd variables:
1 2 1
2 2 1
3 21 1
4 14 1
7 0 0
8 0 0
15 0 0
16 0 0
17 0 0
9 0 0
10 22 1
11 0 0
12 0 0
13 0 0
14 40 1
Customer's demand delivered to PL: l variables:
5
6
7
8
Lockers load <= capacity:
0 <= 90
0 <= 85
0 <= 96
0 <= 78
22 <= 83
0 <= 95
0 <= 85
0 <= 83
40 <= 91
